 vasp.5.4.1 24Jun15 (build Oct 31 2015 19:43:09) complex

 executed on           IFC91_ompi date 2016.09.23  09:38:45

 INCAR:
 POTCAR:    PAW H_GW 21Apr2008
 POTCAR:    PAW C_GW 28Sep2005
 POTCAR:    PAW Zn_sv_GW 01Dec2010
 POTCAR:    PAW N_GW 10Apr2007

 POTCAR:    PAW H_GW 21Apr2008
   VRHFIN =H: ultrasoft test

   TITEL  = PAW H_GW 21Apr2008
   POMASS =    1.000; ZVAL   =    1.000    mass and valenz
   ENMAX  =  300.000; ENMIN  =  250.000 eV

 POTCAR:    PAW C_GW 28Sep2005
   VRHFIN =C: s2p2

   TITEL  = PAW C_GW 28Sep2005
   POMASS =   12.011; ZVAL   =    4.000    mass and valenz
   ENMAX  =  413.992; ENMIN  =  310.494 eV

 POTCAR:    PAW Zn_sv_GW 01Dec2010
   VRHFIN =Zn: d10 p2

   TITEL  = PAW Zn_sv_GW 01Dec2010
   POMASS =   65.390; ZVAL   =   20.000    mass and valenz
   ENMAX  =  496.604; ENMIN  =  372.453 eV

 POTCAR:    PAW N_GW 10Apr2007
   VRHFIN =N: s2p3

   TITEL  = PAW N_GW 10Apr2007
   POMASS =   14.001; ZVAL   =    5.000    mass and valenz
   ENMAX  =  420.902; ENMIN  =  315.677 eV

 Optimization of the real space projectors (new method)

 maximal supplied QI-value         = 34.20
 optimisation between [QCUT,QGAM] = [ 14.37, 28.73] = [ 57.79,231.16] Ry
 Optimized for a Real-space Cutoff    1.07 Angstroem

   l    n(q)    QCUT    max X(q) W(low)/X(q) W(high)/X(q)  e(spline)
   0      9    14.366    26.161    0.12E-03    0.14E-03    0.42E-06
   0      9    14.366    15.773    0.11E-03    0.13E-03    0.41E-06
   1      9    14.366     3.275    0.26E-04    0.15E-03    0.38E-06
   1      9    14.366     2.453    0.10E-04    0.11E-03    0.34E-06
   2      8    14.366     7.471    0.20E-03    0.26E-03    0.15E-06
 Optimization of the real space projectors (new method)

[...]

   l    n(q)    QCUT    max X(q) W(low)/X(q) W(high)/X(q)  e(spline)
   0     11    14.485   200.400    0.18E-04    0.37E-04    0.17E-05
   0     11    14.485   210.010    0.18E-04    0.37E-04    0.17E-05
   0     11    14.485     4.568    0.70E-05    0.29E-04    0.15E-05
   1     11    14.485    51.705    0.12E-03    0.10E-03    0.13E-05
   1     11    14.485    56.882    0.12E-03    0.10E-03    0.13E-05
   1     11    14.485     4.141    0.82E-04    0.73E-04    0.93E-06
   2     10    14.485    25.421    0.17E-03    0.19E-03    0.97E-06
   2     10    14.485    15.377    0.20E-03    0.21E-03    0.11E-05
   2     10    14.485     7.263    0.91E-04    0.13E-03    0.61E-06
   3     10    14.485     6.291    0.34E-04    0.63E-04    0.32E-06
   3     10    14.485     3.121    0.39E-04    0.41E-04    0.26E-06
 Optimization of the real space projectors (new method)

 maximal supplied QI-value         = 25.13
 optimisation between [QCUT,QGAM] = [ 14.33, 28.90] = [ 57.47,233.94] Ry
 Optimized for a Real-space Cutoff    0.89 Angstroem

   l    n(q)    QCUT    max X(q) W(low)/X(q) W(high)/X(q)  e(spline)
   0      8    14.326     6.172    0.66E-04    0.15E-03    0.40E-07
   0      8    14.326     2.301    0.11E-03    0.31E-03    0.75E-07
   1      7    14.326     2.725    0.63E-04    0.18E-03    0.30E-07
   1      7    14.326     2.784    0.65E-04    0.26E-03    0.74E-07
  PAW H_GW 21Apr2008                    :
  PAW C_GW 28Sep2005                    :
  PAW Zn_sv_GW 01Dec2010                :
  PAW N_GW 10Apr2007                    :

 POSCAR: Molecule from CHK
  positions in direct lattice
  velocities in cartesian coordinates
 exchange correlation table for  LEXCH =        8
   RHO(1)=    0.500       N(1)  =     2000
   RHO(2)=  100.500       N(2)  =     4000

 ion  position               nearest neighbor table
   1  0.384  0.855  0.731- 145 1.08
   2  0.616  0.145  0.731- 146 1.08
   3  0.616  0.855  0.269- 147 1.08
   4  0.384  0.145  0.269- 148 1.08
   5  0.731  0.384  0.855- 149 1.08
   6  0.731  0.616  0.145- 150 1.08
   7  0.269  0.616  0.855- 151 1.08
   8  0.269  0.384  0.145- 152 1.08
   9  0.855  0.731  0.384- 153 1.08
  10  0.145  0.731  0.616- 154 1.08
  11  0.855  0.269  0.616- 155 1.08
  12  0.145  0.269  0.384- 156 1.08
  13  0.855  0.384  0.731- 157 1.08
  14  0.145  0.616  0.731- 158 1.08
  15  0.855  0.616  0.269- 159 1.08
  16  0.145  0.384  0.269- 160 1.08
  17  0.384  0.731  0.855- 161 1.08
  18  0.616  0.731  0.145- 162 1.08
  19  0.616  0.269  0.855- 163 1.08
  20  0.384  0.269  0.145- 164 1.08
  21  0.731  0.855  0.384- 165 1.08
  22  0.731  0.145  0.616- 166 1.08
  23  0.269  0.855  0.616- 167 1.08
  24  0.269  0.145  0.384- 168 1.08
  25  0.884  0.355  0.231- 169 1.08
  26  0.116  0.645  0.231- 170 1.08
  27  0.116  0.355  0.769- 171 1.08
  28  0.884  0.645  0.769- 172 1.08
  29  0.231  0.884  0.355- 173 1.08
  30  0.231  0.116  0.645- 174 1.08
  31  0.769  0.116  0.355- 175 1.08
  32  0.769  0.884  0.645- 176 1.08
  33  0.355  0.231  0.884- 177 1.08
  34  0.645  0.231  0.116- 178 1.08
  35  0.355  0.769  0.116- 179 1.08
  36  0.645  0.769  0.884- 180 1.08
  37  0.355  0.884  0.231- 181 1.08
  38  0.645  0.116  0.231- 182 1.08
  39  0.355  0.116  0.769- 183 1.08
  40  0.645  0.884  0.769- 184 1.08
  41  0.884  0.231  0.355- 185 1.08
  42  0.116  0.231  0.645- 186 1.08
  43  0.116  0.769  0.355- 187 1.08
  44  0.884  0.769  0.645- 188 1.08
  45  0.231  0.355  0.884- 189 1.08
  46  0.231  0.645  0.116- 190 1.08
  47  0.769  0.355  0.116- 191 1.08
  48  0.769  0.645  0.884- 192 1.08
  49  0.375  0.135  0.625- 193 1.10
  50  0.606  0.906  0.532- 194 1.10
  51  0.625  0.135  0.375- 195 1.10
  52  0.375  0.865  0.375- 196 1.10
  53  0.532  0.394  0.094- 197 1.10
  54  0.625  0.625  0.865- 198 1.10
  55  0.468  0.606  0.094- 199 1.10
  56  0.375  0.375  0.865- 200 1.10
  57  0.094  0.532  0.394- 201 1.10
  58  0.865  0.625  0.625- 202 1.10
  59  0.094  0.468  0.606- 203 1.10
  60  0.865  0.375  0.375- 204 1.10
[...]
 262  0.532  0.183  0.090- 142 1.35 178 1.38 226 2.00
 263  0.468  0.817  0.090- 143 1.35 179 1.38 225 2.00
 264  0.532  0.817  0.910- 144 1.35 180 1.38 225 2.00
 265  0.468  0.910  0.183- 143 1.35 181 1.38 218 2.00
 266  0.532  0.090  0.183- 142 1.35 182 1.38 218 2.00
 267  0.468  0.090  0.817- 141 1.35 183 1.38 217 2.00
 268  0.532  0.910  0.817- 144 1.35 184 1.38 217 2.00
 269  0.910  0.183  0.468- 139 1.35 185 1.38 222 2.00
 270  0.090  0.183  0.532- 138 1.35 186 1.38 222 2.00
 271  0.090  0.817  0.468- 137 1.35 187 1.38 221 2.00
 272  0.910  0.817  0.532- 140 1.35 188 1.38 221 2.00
 273  0.183  0.468  0.910- 135 1.35 189 1.38 220 2.00
 274  0.183  0.532  0.090- 134 1.35 190 1.38 220 2.00
 275  0.817  0.468  0.090- 133 1.35 191 1.38 219 2.00
 276  0.817  0.532  0.910- 136 1.35 192 1.38 219 2.00

IMPORTANT INFORMATION: All symmetrisations will be switched off!
NOSYMM: (Re-)initialisation of all symmetry stuff for point group C_1.

 KPOINTS: K-Points

Automatic generation of k-mesh.
Space group operators:
 irot       det(A)        alpha          n_x          n_y          n_z        tau_x        tau_y        tau_z
    1     1.000000     0.000001     1.000000     0.000000     0.000000     0.000000     0.000000     0.000000

 Subroutine IBZKPT returns following result:

 Found      1 irreducible k-points:

 Following reciprocal coordinates:
            Coordinates               Weight
  0.000000  0.000000  0.000000      1.000000

 Following cartesian coordinates:
            Coordinates               Weight
  0.000000  0.000000  0.000000      1.000000

 I would recommend the setting:
   dimension x,y,z NGX =   158 NGY =  158 NGZ =  158
 SYSTEM =  ZIF8
 POSCAR =  Molecule from CHK

 Startparameter for this run:
   NWRITE =      2    write-flag & timer
   PREC   = accura    normal or accurate (medium, high low for compatibility)
   ISTART =      0    job   : 0-new  1-cont  2-samecut
   ICHARG =      2    charge: 1-file 2-atom 10-const
   ISPIN  =      1    spin polarized calculation?
   LNONCOLLINEAR =      F non collinear calculations
   LSORBIT =      F    spin-orbit coupling
   INIWAV =      1    electr: 0-lowe 1-rand  2-diag
   LASPH  =      T    aspherical Exc in radial PAW
   METAGGA=      F    non-selfconsistent MetaGGA calc.

 Electronic Relaxation 1
   ENCUT  =  800.0 eV  58.80 Ry    7.67 a.u.  39.38 39.38 39.38*2*pi/ulx,y,z
   ENINI  =  800.0     initial cutoff
   ENAUG  = 1245.7 eV  augmentation charge cutoff
   NELM   =    200;   NELMIN=  8; NELMDL= -5     # of ELM steps
   EDIFF  = 0.1E-07   stopping-criterion for ELM
   LREAL  =      T    real-space projection
   NLSPLINE    = F    spline interpolate recip. space projectors
   LCOMPAT=      F    compatible to vasp.4.4
   GGA_COMPAT  = T    GGA compatible to vasp.4.4-vasp.4.6
   LMAXPAW     = -100 max onsite density
   LMAXMIX     =    2 max onsite mixed and CHGCAR
   VOSKOWN=      0    Vosko Wilk Nusair interpolation
   ROPT   =   -0.00025  -0.00025  -0.00025  -0.00025
 Ionic relaxation
   EDIFFG = 0.1E-06   stopping-criterion for IOM
   NSW    =    500    number of steps for IOM
   NBLOCK =      1;   KBLOCK =    500    inner block; outer block
   IBRION =      2    ionic relax: 0-MD 1-quasi-New 2-CG
   NFREE  =      1    steps in history (QN), initial steepest desc. (CG)
   ISIF   =      4    stress and relaxation
   IWAVPR =     11    prediction:  0-non 1-charg 2-wave 3-comb
   ISYM   =      0    0-nonsym 1-usesym 2-fastsym
   LCORR  =      T    Harris-Foulkes like correction to forces

   POTIM  = 0.5000    time-step for ionic-motion
   TEIN   =    0.0    initial temperature
   TEBEG  =    0.0;   TEEND  =   0.0 temperature during run
   SMASS  =  -3.00    Nose mass-parameter (am)
   estimated Nose-frequenzy (Omega)   =  0.10E-29 period in steps =****** mass=  -0.666E-26a.u.
   SCALEE = 1.0000    scale energy and forces
   NPACO  =    256;   APACO  = 16.0  distance and # of slots for P.C.
   PSTRESS=    0.0 pullay stress

  Mass of Ions in am
   POMASS =   1.00 12.01 65.39 14.00
  Ionic Valenz
   ZVAL   =   1.00  4.00 20.00  5.00
  Atomic Wigner-Seitz radii
  virtual crystal weights
   VCA    =   1.00  1.00  1.00  1.00
   NELECT =     984.0000    total number of electrons
   NUPDOWN=      -1.0000    fix difference up-down

 DOS related values:
   EMIN   =  10.00;   EMAX   =-10.00  energy-range for DOS
   EFERMI =   0.00
   ISMEAR =     0;   SIGMA  =   0.05  broadening in eV -4-tet -1-fermi 0-gaus

 Electronic relaxation 2 (details)
   IALGO  =     38    algorithm
   LDIAG  =      T    sub-space diagonalisation (order eigenvalues)
   LSUBROT=      F    optimize rotation matrix (better conditioning)
   TURBO    =      0    0=normal 1=particle mesh
   IRESTART =      0    0=no restart 2=restart with 2 vectors
   NREBOOT  =      0    no. of reboots
   NMIN     =      0    reboot dimension
   EREF     =   0.00    reference energy to select bands
   IMIX   =      4    mixing-type and parameters
     AMIX     =   0.40;   BMIX     =  1.00
     AMIX_MAG =   1.60;   BMIX_MAG =  1.00
     AMIN     =   0.10
     WC   =   100.;   INIMIX=   1;  MIXPRE=   1;  MAXMIX= -45

 Intra band minimization:
   WEIMIN = 0.0010     energy-eigenvalue tresh-hold
   EBREAK =  0.40E-11  absolut break condition
   DEPER  =   0.30     relativ break condition

   TIME   =   0.40     timestep for ELM

  volume/ion in A,a.u.               =      18.04       121.77
  Fermi-wavevector in a.u.,A,eV,Ry     =   0.953494  1.801842 12.369746  0.909151
[...]

 FORCES acting on ions
    electron-ion (+dipol)            ewald-force                    non-local-force                 convergence-correction
   0.209E+02 0.906E+02 -.273E+02   -.196E+02 -.947E+02 0.312E+02   -.140E+01 0.413E+01 -.397E+01   -.221E-06 -.104E-05 -.497E-07
   -.209E+02 -.906E+02 -.273E+02   0.195E+02 0.947E+02 0.312E+02   0.140E+01 -.413E+01 -.397E+01   -.455E-06 0.147E-05 0.136E-05
   -.209E+02 0.906E+02 0.273E+02   0.196E+02 -.947E+02 -.312E+02   0.140E+01 0.413E+01 0.397E+01   -.752E-07 -.107E-06 -.431E-06
   0.209E+02 -.906E+02 0.273E+02   -.196E+02 0.947E+02 -.312E+02   -.140E+01 -.413E+01 0.397E+01   0.744E-07 -.124E-05 -.206E-06
   -.273E+02 0.209E+02 0.906E+02   0.312E+02 -.196E+02 -.947E+02   -.397E+01 -.140E+01 0.413E+01   -.171E-06 -.208E-06 -.486E-06
   -.273E+02 -.209E+02 -.906E+02   0.312E+02 0.195E+02 0.947E+02   -.397E+01 0.140E+01 -.413E+01   0.129E-05 -.464E-06 0.142E-05
   0.273E+02 -.209E+02 0.906E+02   -.312E+02 0.196E+02 -.947E+02   0.397E+01 0.140E+01 0.413E+01   0.218E-06 0.154E-06 0.697E-06
   0.273E+02 0.209E+02 -.906E+02   -.312E+02 -.196E+02 0.947E+02   0.397E+01 -.140E+01 -.413E+01   0.158E-06 -.252E-06 -.138E-05
   0.906E+02 -.273E+02 0.209E+02   -.947E+02 0.312E+02 -.196E+02   0.413E+01 -.397E+01 -.140E+01   -.569E-06 -.566E-06 -.448E-06
   -.906E+02 -.273E+02 -.209E+02   0.947E+02 0.312E+02 0.195E+02   -.413E+01 -.397E+01 0.140E+01   0.109E-05 0.923E-06 -.326E-06
   0.906E+02 0.273E+02 -.209E+02   -.947E+02 -.312E+02 0.196E+02   0.413E+01 0.397E+01 0.140E+01   0.666E-06 0.144E-06 -.260E-07
   -.906E+02 0.273E+02 0.209E+02   0.947E+02 -.312E+02 -.196E+02   -.413E+01 0.397E+01 -.140E+01   -.112E-05 -.325E-06 -.124E-06
   0.906E+02 0.209E+02 -.273E+02   -.947E+02 -.196E+02 0.312E+02   0.413E+01 -.140E+01 -.397E+01   -.555E-07 -.277E-06 -.590E-06
   -.906E+02 -.209E+02 -.273E+02   0.947E+02 0.195E+02 0.312E+02   -.413E+01 0.140E+01 -.397E+01   0.974E-06 -.311E-06 0.998E-06
   0.906E+02 -.209E+02 0.273E+02   -.947E+02 0.196E+02 -.312E+02   0.413E+01 0.140E+01 0.397E+01   0.292E-06 -.661E-07 -.622E-07
   -.906E+02 0.209E+02 0.273E+02   0.947E+02 -.196E+02 -.312E+02   -.413E+01 -.140E+01 0.397E+01   -.106E-05 -.139E-06 -.201E-06
   0.209E+02 -.273E+02 0.906E+02   -.196E+02 0.312E+02 -.947E+02   -.140E+01 -.397E+01 0.413E+01   -.433E-06 -.697E-06 -.840E-07
   -.209E+02 -.273E+02 -.906E+02   0.195E+02 0.312E+02 0.947E+02   0.140E+01 -.397E+01 -.413E+01   -.308E-06 0.132E-05 0.146E-05
   -.209E+02 0.273E+02 0.906E+02   0.196E+02 -.312E+02 -.947E+02   0.140E+01 0.397E+01 0.413E+01   -.913E-07 -.468E-06 0.250E-06
   0.209E+02 0.273E+02 -.906E+02   -.196E+02 -.312E+02 0.947E+02   -.140E+01 0.397E+01 -.413E+01   -.217E-06 0.118E-06 -.150E-05
   -.273E+02 0.906E+02 0.209E+02   0.312E+02 -.947E+02 -.196E+02   -.397E+01 0.413E+01 -.140E+01   -.212E-06 -.912E-06 -.289E-06
   -.273E+02 -.906E+02 -.209E+02   0.312E+02 0.947E+02 0.195E+02   -.397E+01 -.413E+01 0.140E+01   0.134E-05 0.135E-05 -.642E-06
   0.273E+02 0.906E+02 -.209E+02   -.312E+02 -.947E+02 0.196E+02   0.397E+01 0.413E+01 0.140E+01   -.317E-06 -.244E-06 -.113E-06
   0.273E+02 -.906E+02 0.209E+02   -.312E+02 0.947E+02 -.196E+02   0.397E+01 -.413E+01 -.140E+01   -.182E-06 -.111E-05 -.205E-07
   0.209E+02 0.906E+02 -.273E+02   -.196E+02 -.947E+02 0.312E+02   -.140E+01 0.413E+01 -.397E+01   -.401E-06 -.469E-06 -.785E-06
   -.209E+02 -.906E+02 -.273E+02   0.195E+02 0.947E+02 0.312E+02   0.140E+01 -.413E+01 -.397E+01   -.302E-06 0.602E-06 0.951E-07
   -.209E+02 0.906E+02 0.273E+02   0.196E+02 -.947E+02 -.312E+02   0.140E+01 0.413E+01 0.397E+01   -.763E-07 0.411E-06 0.733E-06
   0.209E+02 -.906E+02 0.273E+02   -.196E+02 0.947E+02 -.312E+02   -.140E+01 -.413E+01 0.397E+01   -.988E-07 -.114E-05 0.230E-06
   -.273E+02 0.209E+02 0.906E+02   0.312E+02 -.196E+02 -.947E+02   -.397E+01 -.140E+01 0.413E+01   -.678E-06 -.254E-06 -.402E-06
   -.273E+02 -.209E+02 -.906E+02   0.312E+02 0.195E+02 0.947E+02   -.397E+01 0.140E+01 -.413E+01   0.977E-06 -.324E-06 0.137E-05
   0.273E+02 -.209E+02 0.906E+02   -.312E+02 0.196E+02 -.947E+02   0.397E+01 0.140E+01 0.413E+01   -.280E-06 0.412E-07 -.124E-06
   0.273E+02 0.209E+02 -.906E+02   -.312E+02 -.196E+02 0.947E+02   0.397E+01 -.140E+01 -.413E+01   0.197E-06 -.885E-07 -.115E-05
   0.906E+02 -.273E+02 0.209E+02   -.947E+02 0.312E+02 -.196E+02   0.413E+01 -.397E+01 -.140E+01   -.862E-06 -.630E-06 -.939E-07
   -.906E+02 -.273E+02 -.209E+02   0.947E+02 0.312E+02 0.195E+02   -.413E+01 -.397E+01 0.140E+01   0.160E-05 0.102E-05 -.474E-06
   0.906E+02 0.273E+02 -.209E+02   -.947E+02 -.312E+02 0.196E+02   0.413E+01 0.397E+01 0.140E+01   0.217E-06 0.384E-06 -.109E-06
   -.906E+02 0.273E+02 0.209E+02   0.947E+02 -.312E+02 -.196E+02   -.413E+01 0.397E+01 -.140E+01   -.895E-06 0.128E-07 -.103E-07
   0.906E+02 0.209E+02 -.273E+02   -.947E+02 -.196E+02 0.312E+02   0.413E+01 -.140E+01 -.397E+01   -.486E-06 -.174E-06 -.702E-06
   -.906E+02 -.209E+02 -.273E+02   0.947E+02 0.195E+02 0.312E+02   -.413E+01 0.140E+01 -.397E+01   0.165E-05 -.383E-06 0.124E-05
   0.906E+02 -.209E+02 0.273E+02   -.947E+02 0.196E+02 -.312E+02   0.413E+01 0.140E+01 0.397E+01   -.123E-06 0.357E-07 -.427E-07
   -.906E+02 0.209E+02 0.273E+02   0.947E+02 -.196E+02 -.312E+02   -.413E+01 -.140E+01 0.397E+01   -.107E-05 -.550E-07 0.966E-07
   0.209E+02 -.273E+02 0.906E+02   -.196E+02 0.312E+02 -.947E+02   -.140E+01 -.397E+01 0.413E+01   -.219E-06 -.419E-06 -.744E-06
   -.209E+02 -.273E+02 -.906E+02   0.195E+02 0.312E+02 0.947E+02   0.140E+01 -.397E+01 -.413E+01   -.498E-06 0.673E-06 0.137E-05
   -.209E+02 0.273E+02 0.906E+02   0.196E+02 -.312E+02 -.947E+02   0.140E+01 0.397E+01 0.413E+01   -.197E-07 0.281E-06 0.227E-06
   0.209E+02 0.273E+02 -.906E+02   -.196E+02 -.312E+02 0.947E+02   -.140E+01 0.397E+01 -.413E+01   -.193E-06 0.145E-06 -.943E-06
   -.273E+02 0.906E+02 0.209E+02   0.312E+02 -.947E+02 -.196E+02   -.397E+01 0.413E+01 -.140E+01   -.116E-05 -.479E-06 -.360E-06
   -.273E+02 -.906E+02 -.209E+02   0.312E+02 0.947E+02 0.195E+02   -.397E+01 -.413E+01 0.140E+01   0.116E-06 0.658E-06 -.327E-06
   0.273E+02 0.906E+02 -.209E+02   -.312E+02 -.947E+02 0.196E+02   0.397E+01 0.413E+01 0.140E+01   0.363E-06 0.335E-06 0.383E-07
   0.273E+02 -.906E+02 0.209E+02   -.312E+02 0.947E+02 -.196E+02   0.397E+01 -.413E+01 -.140E+01   0.209E-06 -.105E-05 -.135E-06
   0.195E+02 -.104E+03 -.195E+02   -.220E+02 0.108E+03 0.220E+02   0.251E+01 -.416E+01 -.251E+01   -.180E-06 -.340E-06 0.504E-06
   0.212E+02 0.730E+02 0.432E+02   -.203E+02 -.736E+02 -.487E+02   -.920E+00 0.637E+00 0.550E+01   -.267E-06 0.763E-07 0.210E-06
   -.195E+02 -.104E+03 0.195E+02   0.220E+02 0.108E+03 -.220E+02   -.251E+01 -.416E+01 0.251E+01   0.731E-06 -.323E-06 -.272E-06
   0.195E+02 0.104E+03 0.195E+02   -.220E+02 -.108E+03 -.220E+02   0.251E+01 0.416E+01 0.251E+01   0.152E-06 -.218E-06 0.181E-06
   0.432E+02 -.212E+02 -.730E+02   -.487E+02 0.203E+02 0.736E+02   0.550E+01 0.920E+00 -.637E+00   0.331E-06 -.343E-06 -.130E-06
   -.195E+02 -.195E+02 0.104E+03   0.220E+02 0.220E+02 -.108E+03   -.251E+01 -.251E+01 0.416E+01   -.333E-06 -.346E-06 -.171E-06
   -.432E+02 0.212E+02 -.730E+02   0.487E+02 -.203E+02 0.736E+02   -.550E+01 -.920E+00 -.637E+00   0.428E-06 0.871E-06 -.265E-06
   0.195E+02 0.195E+02 0.104E+03   -.220E+02 -.220E+02 -.108E+03   0.251E+01 0.251E+01 0.416E+01   -.165E-06 -.417E-06 -.610E-06
   -.730E+02 0.432E+02 -.212E+02   0.736E+02 -.487E+02 0.203E+02   -.637E+00 0.550E+01 0.920E+00   -.212E-06 -.181E-07 -.240E-06
   0.104E+03 -.195E+02 -.195E+02   -.108E+03 0.220E+02 0.220E+02   0.416E+01 -.251E+01 -.251E+01   -.213E-06 -.580E-06 -.305E-06
   -.730E+02 -.432E+02 0.212E+02   0.736E+02 0.487E+02 -.203E+02   -.637E+00 -.550E+01 -.920E+00   -.397E-06 0.244E-06 0.840E-06
   0.104E+03 0.195E+02 0.195E+02   -.108E+03 -.220E+02 -.220E+02   0.416E+01 0.251E+01 0.251E+01   -.334E-06 -.137E-06 -.264E-07
[...]
   0.113E+03 -.545E+01 -.150E+03   -.108E+03 -.651E+01 0.134E+03   -.517E+01 0.120E+02 0.157E+02   -.219E-05 -.650E-06 0.339E-05
   -.113E+03 -.547E+01 0.150E+03   0.108E+03 -.648E+01 -.134E+03   0.517E+01 0.120E+02 -.157E+02   0.439E-05 0.503E-05 -.713E-05
   0.113E+03 0.150E+03 0.546E+01   -.108E+03 -.134E+03 0.649E+01   -.517E+01 -.157E+02 -.120E+02   0.906E-05 -.316E-05 -.835E-05
   -.113E+03 -.150E+03 0.548E+01   0.108E+03 0.134E+03 0.647E+01   0.517E+01 0.157E+02 -.120E+02   -.288E-05 -.190E-04 0.120E-04
   0.113E+03 -.150E+03 -.544E+01   -.108E+03 0.134E+03 -.651E+01   -.517E+01 0.157E+02 0.120E+02   -.934E-06 0.135E-05 -.304E-05
   -.113E+03 0.150E+03 -.547E+01   0.108E+03 -.134E+03 -.648E+01   0.517E+01 -.157E+02 0.120E+02   0.560E-05 -.783E-05 0.407E-05
   0.150E+03 0.546E+01 0.113E+03   -.134E+03 0.649E+01 -.108E+03   -.157E+02 -.120E+02 -.517E+01   0.167E-05 -.248E-05 0.838E-05
   -.150E+03 0.548E+01 -.113E+03   0.134E+03 0.647E+01 0.108E+03   0.157E+02 -.120E+02 0.517E+01   -.157E-04 0.907E-05 -.259E-05
   -.150E+03 -.545E+01 0.113E+03   0.134E+03 -.651E+01 -.108E+03   0.157E+02 0.120E+02 -.517E+01   0.525E-05 -.494E-07 -.296E-05
   0.150E+03 -.547E+01 -.113E+03   -.134E+03 -.648E+01 0.108E+03   -.157E+02 0.120E+02 0.517E+01   -.115E-04 0.783E-05 0.456E-05
   0.546E+01 0.113E+03 0.150E+03   0.649E+01 -.108E+03 -.134E+03   -.120E+02 -.517E+01 -.157E+02   -.147E-04 0.821E-05 -.955E-05
   0.548E+01 -.113E+03 -.150E+03   0.647E+01 0.108E+03 0.134E+03   -.120E+02 0.517E+01 0.157E+02   0.630E-06 0.224E-05 -.511E-05
   -.544E+01 0.113E+03 -.150E+03   -.651E+01 -.108E+03 0.134E+03   0.120E+02 -.517E+01 0.157E+02   -.450E-06 -.231E-05 0.397E-05
   -.547E+01 -.113E+03 0.150E+03   -.648E+01 0.108E+03 -.134E+03   0.120E+02 0.517E+01 -.157E+02   0.693E-05 0.433E-05 -.101E-04
   -.125E-01 -.117E-01 -.120E-01   -.133E-11 -.739E-12 0.853E-12   0.247E-01 0.242E-01 0.244E-01   0.129E-03 0.113E-03 0.399E-04

 POSITION                                       TOTAL-FORCE (eV/Angst)
      6.55338     14.59877     12.48821         0.000048      0.000013     -0.000082
     10.52410      2.47877     12.48804         0.000033     -0.000060      0.000004
     10.52428     14.59869      4.58943        -0.000022     -0.000045      0.000011
      6.55326      2.47869      4.58930        -0.000049      0.000055      0.000032
     12.48822      6.55338     14.59878        -0.000084      0.000035      0.000009
     12.48803     10.52410      2.47878         0.000016      0.000022     -0.000058
      4.58943     10.52428     14.59869        -0.000014     -0.000032     -0.000057
      4.58929      6.55325      2.47869         0.000032     -0.000039      0.000071
     14.59877     12.48820      6.55339         0.000003     -0.000055      0.000042
      2.47877     12.48804     10.52409        -0.000037      0.000019      0.000031
     14.59870      4.58942     10.52429        -0.000063      0.000001     -0.000036
      2.47869      4.58930      6.55325         0.000047      0.000039     -0.000038
     14.59878      6.55337     12.48822        -0.000012      0.000050     -0.000064
      2.47878     10.52410     12.48803        -0.000045      0.000017      0.000030
     14.59869     10.52427      4.58943        -0.000052     -0.000025     -0.000005
      2.47869      6.55325      4.58929         0.000054     -0.000048      0.000049
      6.55339     12.48821     14.59877         0.000040     -0.000053     -0.000013
     10.52410     12.48803      2.47878         0.000027      0.000014     -0.000051
     10.52429      4.58942     14.59869        -0.000027      0.000013     -0.000042
      6.55325      4.58929      2.47869        -0.000033      0.000026      0.000070
     12.48821     14.59877      6.55338        -0.000072      0.000013      0.000043
     12.48804      2.47877     10.52410         0.000001     -0.000062      0.000036
      4.58942     14.59869     10.52429         0.000027     -0.000044     -0.000026
      4.58930      2.47869      6.55326         0.000028      0.000054     -0.000046
     15.09205      6.06006      3.94951         0.000055      0.000010     -0.000068
      1.98539     11.01745      3.94933         0.000011     -0.000038      0.000048
      1.98558      6.05998     13.12810        -0.000032     -0.000050     -0.000003
     15.09200     11.01742     13.12804        -0.000044      0.000044      0.000026
      3.94950     15.09205      6.06007        -0.000059      0.000045      0.000001
      3.94933      1.98540     11.01745         0.000027      0.000014     -0.000062
     13.12811      1.98557      6.05999        -0.000001     -0.000031     -0.000030
     13.12803     15.09198     11.01743         0.000038     -0.000038      0.000058
      6.06007      3.94950     15.09206         0.000025     -0.000064      0.000039
     11.01745      3.94933      1.98540        -0.000058      0.000016      0.000027
      6.05998     13.12809      1.98558        -0.000045      0.000008     -0.000036
     11.01743     13.12803     15.09199         0.000043      0.000031     -0.000031
      6.06007     15.09205      3.94951         0.000009      0.000053     -0.000067
     11.01745      1.98539      3.94933        -0.000066      0.000019      0.000020
      6.05999      1.98557     13.12811        -0.000029     -0.000024      0.000000
     11.01742     15.09198     13.12803         0.000049     -0.000041      0.000043
     15.09206      3.94950      6.06007         0.000039     -0.000066      0.000018
      1.98540      3.94933     11.01745         0.000023      0.000018     -0.000057
      1.98558     13.12810      6.05998        -0.000035     -0.000005     -0.000044
     15.09198     13.12803     11.01743        -0.000029      0.000034      0.000048
      3.94951      6.06006     15.09205        -0.000049      0.000002      0.000058
      3.94933     11.01745      1.98539         0.000044     -0.000030      0.000018
     13.12809      6.05998      1.98559         0.000009     -0.000047     -0.000037
     13.12804     11.01743     15.09200         0.000022      0.000045     -0.000042
      6.40108      2.30825     10.67624         0.000043      0.000020      0.000009
     10.34859     15.48041      9.08787        -0.000001     -0.000030      0.000005
     10.67624      2.30825      6.40108         0.000012      0.000024      0.000048
      6.40121     14.76916      6.40122        -0.000114      0.000150     -0.000118
      9.08783      6.72880      1.59702         0.000026      0.000031     -0.000048
     10.67631     10.67629     14.76922        -0.000025     -0.000018     -0.000037
      7.98954     10.34853      1.59709         0.000019      0.000014      0.000010
      6.40122      6.40121     14.76916        -0.000117     -0.000112      0.000157
      1.59702      9.08783      6.72879        -0.000049      0.000017      0.000036
     14.76922     10.67629     10.67631        -0.000032     -0.000018     -0.000020
      1.59709      7.98954     10.34853         0.000011      0.000015      0.000012
     14.76916      6.40121      6.40123         0.000150     -0.000113     -0.000120
[...]
      9.07822      3.11858      1.54026         0.000029      0.000146     -0.000119
      7.99921     13.95881      1.54037        -0.000082     -0.000032      0.000013
      9.07826     13.95886     15.53720         0.000054      0.000036     -0.000076
      7.99928     15.53716      3.11869         0.000194     -0.000007     -0.000148
      9.07823      1.54025      3.11859         0.000024     -0.000135      0.000158
      7.99922      1.54036     13.95881        -0.000064     -0.000021     -0.000048
      9.07826     15.53720     13.95887         0.000069     -0.000069      0.000023
     15.53716      3.11868      7.99928         0.000019     -0.000131      0.000200
      1.54026      3.11858      9.07823        -0.000084      0.000121      0.000036
      1.54036     13.95881      7.99921         0.000022     -0.000012     -0.000069
     15.53720     13.95886      9.07826        -0.000090      0.000058      0.000047
      3.11869      7.99928     15.53716        -0.000202      0.000209     -0.000048
      3.11858      9.07822      1.54025         0.000102      0.000073     -0.000044
     13.95881      7.99921      1.54037         0.000002     -0.000061      0.000032
     13.95887      9.07825     15.53720         0.000039      0.000073     -0.000087
    total drift:                                0.012270      0.012574      0.012391

  FREE ENERGIE OF THE ION-ELECTRON SYSTEM (eV)
  free  energy   TOTEN  =     -1737.69715715 eV

  energy  without entropy=    -1737.69715715  energy(sigma->0) =    -1737.69715715

 d Force = 0.2970845E-06[ 0.944E-07, 0.500E-06]  d Energy = 0.2513648E-06 0.457E-07
 d Force =-0.5780590E-02[-0.578E-02,-0.578E-02]  d Ewald  =-0.5780411E-02-0.179E-06

 reached required accuracy - stopping structural energy minimisation